%chk=Water.chk
#p out=mat hf 3-21g geom=connectivity

Title Card Required

0 1
 O                 -1.06714627    0.49160671    0.00000000
 H                 -0.10714627    0.49160671    0.00000000
 H                 -1.38760086    1.39654254    0.00000000

 1 2 1.0 3 1.0
 2
 3

water.mat

