%chk=z-full
#p test hf/3-21g
pop=full
nosymm
out=mat

test

-1  1
o(frag=1)    0.0   0.0   0.0
h(frag=2)    0.0   0.0   1.0

z-full.mat

